DIMENSION: 105
1
2
6
7
10
11
15
12
19
24
27
20
23
28
103
21
22
29
30
31
32
33
36
37
42
43
41
46
52
53
58
57
54
51
47
44
104
40
49
45
48
50
55
56
59
105
63
62
64
67
68
71
72
77
79
78
82
84
83
85
91
92
96
97
101
102
93
86
80
76
73
69
74
70
75
81
89
90
98
99
100
95
94
88
87
66
65
61
60
39
38
35
34
14
13
4
5
17
26
25
18
16
9
8
3
